J=5;
K=5;
E=[100, 200, 95, 150, 89];
A=[1, 0.5, 1.3, 0.2, 0.1];
G=[0, 0, 0, 0, 0];
F=[35, 31, 26, 29, 38];
V=[0.1, 0.125, 0.15, 0.115, 0.165];
P_inf=[60, 90, 55, 30, 75];
P_sup=[200, 120, 80, 230, 450];
Sup=[280, 200, 150, 190, 330];
Inf=[300, 150, 100, 250, 300];
P0=[0, 0, 0, 0, 0];
D=[150, 100, 200, 50, 250];
R=[25, 60, 55, 65, 80];
